# This is a deepmd model
# create groups
group ox type 1
group hy type 2

pair_style 	deepmd graph.pb
pair_coeff	* *
