echo both

include		in.partitions
log             log.lammps.bulk.${pid} append
include		in.temp
include		in.pressure
include		in.seed
units		metal
atom_style	atomic
read_data	iceIV.data
replicate 	2 1 1 # Only replicate if half the atoms used in the coexistence sim are present in iceIV.data
include 	in.setup

timer 		timeout 23:30:00 every 1000


fix 		thermo_print all print 100 "$(step) $(pe) $(ke) $(etotal) $(temp) $(pxx) $(pyy) $(pzz) $(pxy) $(pxz) $(pyz) $(press) $(lx) $(ly) $(lz) $(xy) $(xz) $(yz) $(vol)" append thermo.bulk.out screen no title "#step pe ke etotal temp pxx pyy pzz pxy pxz pyz press lx ly lz xy xz yz vol"
dump		1 all custom 1000 water.dump.bulk.${pid} id type x y z 
dump_modify	1 sort id append yes

# equilibrate ice configuration to desired pressure
fix             1 all nph tri ${pressure} ${pressure} ${pressureDamp}
fix             2 all temp/csvr ${temperature} ${temperature} ${tempDamp} ${seed}
fix		3 all momentum 10000 linear 1 1 1 rescale
velocity        all create ${temperature} ${seed}

run             200000 # 100 ps

write_restart   restart.bulk.${pid}
write_data   	water.data.bulk.${pid}

print $(step) file Bulkdone.txt
