variable	out_freq equal 500
variable	out_freq2 equal 5000

timestep	0.0005

neigh_modify    delay 10 every 1

include		in.deepmd

thermo          ${out_freq}
thermo_style    custom step pe ke etotal temp pxx pyy pzz pxy pxz pyz press lx ly lz xy xz yz vol

restart 	${out_freq} restart.lmp.${pid} restart2.lmp.${pid}

