echo both

include		in.partitions
log             log.lammps.${pid} append
include		in.temp
include		in.pressure
include		in.seed
units		metal
atom_style	atomic
include		in.box
include 	in.setup

include         in.dump

timer           timeout 23:30:00 every 1000

fix             1 all nph iso ${pressure} ${pressure} ${pressureDamp}
fix             2 all temp/csvr ${temperature} ${temperature} ${tempDamp} ${seed}
fix 		3 all momentum 1000 linear 1 1 1
velocity 	all create ${temperature} ${seed} dist gaussian

run             500000 upto

unfix		3
unfix		2
unfix		1

write_data	data.final.${pid}

write_restart   restart.lmp.${pid}
